benchmarks/bfuzz0/31544212478792328922144309618639950.smt2
(set-logic QF_FP)
(declare-const x0 (_ FloatingPoint 8 24))
(declare-const x1 (_ FloatingPoint 8 24))
(declare-const x2 (_ FloatingPoint 8 24))
(declare-const x3 (_ FloatingPoint 8 24))
(declare-const x4 (_ FloatingPoint 8 24))
(declare-const x5 (_ FloatingPoint 8 24))
(declare-const x6 (_ FloatingPoint 8 24))
(declare-const x7 (_ FloatingPoint 8 24))
(declare-const x8 (_ FloatingPoint 8 24))
(declare-const x9 (_ FloatingPoint 8 24))
(declare-const x10 (_ FloatingPoint 8 24))
(declare-const x11 (_ FloatingPoint 8 24))
(declare-const x12 (_ FloatingPoint 8 24))
(assert (fp.leq (fp.neg x0) (fp.neg x9)))
(assert (fp.lt (fp.sub RNE x6 x8) (fp.neg x9)))
(assert (fp.geq (fp.div RNE x11 x8) (fp.add RNE x1 x5)))
(assert (fp.geq (fp.add RNE x5 x1) (fp.neg x8)))
(check-sat)
