db/data/31544212478792328922144309618639950.z3.out
sat
-------------------
6.336889486
